Minimize
  0.0666666666666667 y_0 + 0.0833333333333333 y_1 + 0.0416666666666667 y_2
   + 0.0434782608695652 y_3 + 0.05 y_4 + 0.25 y_5 + 0.1111111111111111 y_6
   + 0.0555555555555556 y_7 + 0.0476190476190476 y_8
   + 0.0588235294117647 y_9 + 0.0526315789473684 y_10 + 0.1 y_11
   + 0.1111111111111111 y_12 + 0.0555555555555556 y_13 + 0.05 y_14
   + 0.0769230769230769 y_15 + 0.04 y_16 + 0.0454545454545455 y_17
   + 0.2 y_18 + 0.0769230769230769 y_19 + 0.25 y_20 + 0.05 y_21
   + 0.0909090909090909 y_22 + 0.0526315789473684 y_23 + 0.04 y_24
   + 0.0555555555555556 y_25 + 0.0625 y_26 + 0.0909090909090909 y_27
   + 0.0588235294117647 y_28 + 0.0416666666666667 y_29
   + 0.0909090909090909 y_30 + y_31 + 0.0526315789473684 y_32
   + 0.0526315789473684 y_33 + 0.0714285714285714 y_34
   + 0.0555555555555556 y_35 + 0.0555555555555556 y_36
   + 0.1111111111111111 y_37 + 0.1428571428571428 y_38
   + 0.1111111111111111 y_39 + 0.0357142857142857 y_40
   + 0.1111111111111111 y_41 + 0.0833333333333333 y_42
   + 0.0769230769230769 y_43 + 0.0416666666666667 y_44
   + 0.0588235294117647 y_45 + 0.0476190476190476 y_46 + 0.04 y_47
   + 0.1111111111111111 y_48 + 0.0588235294117647 y_49
   + 0.0769230769230769 y_50 + 0.0588235294117647 y_51 + 0.05 y_52
   + 0.05 y_53 + 0.25 y_54 + 0.0714285714285714 y_55
   + 0.0769230769230769 y_56 + 0.05 y_57 + 0.0454545454545455 y_58
   + 0.0434782608695652 y_59 + 0.0769230769230769 y_60
   + 0.0476190476190476 y_61 + 0.0588235294117647 y_62
   + 0.0833333333333333 y_63 + 0.0454545454545455 y_64 + 0.2 y_65
   + 0.0526315789473684 y_66 + 0.0588235294117647 y_67 + 0.25 y_68
   + 0.0769230769230769 y_69 + 0.0833333333333333 y_70
   + 0.0526315789473684 y_71 + 0.0357142857142857 y_72
   + 0.0454545454545455 y_73 + 0.05 y_74 + 0.05 y_75
   + 0.0526315789473684 y_76 + 0.0434782608695652 y_77
   + 0.0526315789473684 y_78 + 0.05 y_79 + 0.1666666666666667 y_80
   + 0.05 y_81 + 0.0833333333333333 y_82 + 0.05 y_83
   + 0.0666666666666667 y_84 + 0.25 y_85 + 0.0526315789473684 y_86
   + 0.0833333333333333 y_87 + 0.0476190476190476 y_88 + 0.05 y_89
   + 0.0476190476190476 y_90 + 0.05 y_91 + 0.0909090909090909 y_92
   + 0.0588235294117647 y_93 + 0.0714285714285714 y_94
   + 0.0476190476190476 y_95 + 0.0769230769230769 y_96
   + 0.0909090909090909 y_97 + 0.05 y_98 + 0.0476190476190476 y_99
   - 8.590304686526583 Constant
Subject To
 c_0: y_52 = 1
 c_1_0: y_0 + y_26 + y_55 >= 1
 c_1_1: y_1 + y_19 + y_63 + y_69 + y_87 + y_92 + y_97 >= 1
 c_1_2: y_2 + y_47 >= 1
 c_1_3: y_3 + y_59 >= 1
 c_1_4: y_4 + y_88 >= 1
 c_1_5: y_5 + y_18 + y_65 >= 1
 c_1_6: y_6 + y_11 + y_37 >= 1
 c_1_7: y_7 + y_9 + y_23 + y_32 >= 1
 c_1_8: y_8 + y_21 + y_74 >= 1
 c_1_9: y_7 + y_9 >= 1
 c_1_10: y_10 + y_14 + y_78 + y_81 + y_83 + y_98 >= 1
 c_1_11: y_6 + y_11 + y_37 + y_70 >= 1
 c_1_12: y_12 + y_39 + y_41 + y_92 + y_97 >= 1
 c_1_13: y_13 + y_28 + y_33 + y_45 + y_98 >= 1
 c_1_14: y_10 + y_14 + y_64 + y_81 + y_83 + y_98 >= 1
 c_1_15: y_15 + y_42 + y_55 >= 1
 c_1_16: y_16 >= 1
 c_1_17: y_17 + y_61 + y_73 + y_77 + y_88 >= 1
 c_1_18: y_5 + y_18 + y_20 + y_54 + y_65 + y_85 >= 1
 c_1_19: y_1 + y_19 + y_63 + y_69 + y_87 >= 1
 c_1_20: y_18 + y_20 + y_54 + y_68 + y_85 >= 1
 c_1_21: y_8 + y_21 + y_74 >= 1
 c_1_22: y_22 + y_43 >= 1
 c_1_23: y_7 + y_23 + y_32 + y_76 + y_78 >= 1
 c_1_24: y_24 >= 1
 c_1_25: y_25 + y_33 + y_67 >= 1
 c_1_26: y_0 + y_26 + y_51 + y_55 >= 1
 c_1_27: y_27 + y_50 + y_56 + y_82 >= 1
 c_1_28: y_13 + y_28 + y_45 >= 1
 c_1_29: y_29 + y_44 >= 1
 c_1_30: y_30 + y_42 + y_48 >= 1
 c_1_31: y_31 >= 1
 c_1_32: y_7 + y_23 + y_32 + y_76 + y_78 >= 1
 c_1_33: y_13 + y_25 + y_33 + y_53 + y_86 >= 1
 c_1_34: y_34 + y_50 + y_56 + y_60 >= 1
 c_1_35: y_35 >= 1
 c_1_36: y_36 + y_49 + y_57 + y_62 + y_89 >= 1
 c_1_37: y_6 + y_11 + y_37 >= 1
 c_1_38: y_38 + y_65 + y_80 >= 1
 c_1_39: y_12 + y_39 + y_48 >= 1
 c_1_40: y_40 + y_72 >= 1
 c_1_41: y_12 + y_41 >= 1
 c_1_42: y_15 + y_30 + y_42 + y_70 >= 1
 c_1_43: y_22 + y_43 + y_56 >= 1
 c_1_44: y_29 + y_44 + y_47 >= 1
 c_1_45: y_13 + y_28 + y_45 >= 1
 c_1_46: y_46 + y_53 + y_75 + y_90 + y_95 + y_99 >= 1
 c_1_47: y_2 + y_44 + y_47 >= 1
 c_1_48: y_30 + y_39 + y_48 >= 1
 c_1_49: y_36 + y_49 + y_51 + y_62 >= 1
 c_1_50: y_27 + y_34 + y_50 + y_56 + y_60 + y_82 >= 1
 c_1_51: y_26 + y_49 + y_51 >= 1
 c_1_52: y_52 >= 1
 c_1_53: y_33 + y_46 + y_53 + y_66 + y_75 + y_86 + y_90 + y_95 >= 1
 c_1_54: y_18 + y_20 + y_54 + y_68 + y_85 >= 1
 c_1_55: y_0 + y_15 + y_26 + y_55 + y_69 >= 1
 c_1_56: y_27 + y_34 + y_43 + y_50 + y_56 + y_60 + y_82 >= 1
 c_1_57: y_36 + y_57 + y_79 + y_89 + y_91 >= 1
 c_1_58: y_58 >= 1
 c_1_59: y_3 + y_59 >= 1
 c_1_60: y_34 + y_50 + y_56 + y_60 + y_82 >= 1
 c_1_61: y_17 + y_61 + y_73 + y_77 + y_88 >= 1
 c_1_62: y_36 + y_49 + y_62 + y_67 >= 1
 c_1_63: y_1 + y_19 + y_63 + y_69 + y_87 + y_92 + y_97 >= 1
 c_1_64: y_14 + y_64 + y_83 >= 1
 c_1_65: y_5 + y_18 + y_38 + y_65 + y_80 >= 1
 c_1_66: y_53 + y_66 + y_75 + y_79 + y_89 + y_95 + y_99 >= 1
 c_1_67: y_25 + y_62 + y_67 >= 1
 c_1_68: y_20 + y_54 + y_68 + y_85 >= 1
 c_1_69: y_1 + y_19 + y_55 + y_63 + y_69 + y_87 >= 1
 c_1_70: y_11 + y_42 + y_70 >= 1
 c_1_71: y_71 + y_74 >= 1
 c_1_72: y_40 + y_72 >= 1
 c_1_73: y_17 + y_61 + y_73 + y_77 + y_88 >= 1
 c_1_74: y_8 + y_21 + y_71 + y_74 >= 1
 c_1_75: y_46 + y_53 + y_66 + y_75 + y_79 + y_86 + y_89 + y_90 + y_95
   + y_99 >= 1
 c_1_76: y_23 + y_32 + y_76 + y_78 + y_81 >= 1
 c_1_77: y_17 + y_61 + y_73 + y_77 >= 1
 c_1_78: y_10 + y_23 + y_32 + y_76 + y_78 + y_81 >= 1
 c_1_79: y_57 + y_66 + y_75 + y_79 + y_89 + y_90 + y_91 + y_95 + y_99 >= 1
 c_1_80: y_38 + y_65 + y_80 >= 1
 c_1_81: y_10 + y_14 + y_76 + y_78 + y_81 + y_83 >= 1
 c_1_82: y_27 + y_50 + y_56 + y_60 + y_82 >= 1
 c_1_83: y_10 + y_14 + y_64 + y_81 + y_83 + y_98 >= 1
 c_1_84: y_84 >= 1
 c_1_85: y_18 + y_20 + y_54 + y_68 + y_85 >= 1
 c_1_86: y_33 + y_53 + y_75 + y_86 + y_90 + y_95 >= 1
 c_1_87: y_1 + y_19 + y_63 + y_69 + y_87 + y_92 + y_97 >= 1
 c_1_88: y_4 + y_17 + y_61 + y_73 + y_88 >= 1
 c_1_89: y_36 + y_57 + y_66 + y_75 + y_79 + y_89 + y_91 + y_99 >= 1
 c_1_90: y_46 + y_53 + y_75 + y_79 + y_86 + y_90 + y_95 + y_99 >= 1
 c_1_91: y_57 + y_79 + y_89 + y_91 >= 1
 c_1_92: y_1 + y_12 + y_63 + y_87 + y_92 + y_97 >= 1
 c_1_93: y_93 >= 1
 c_1_94: y_94 + y_96 >= 1
 c_1_95: y_46 + y_53 + y_66 + y_75 + y_79 + y_86 + y_90 + y_95 + y_99 >= 1
 c_1_96: y_94 + y_96 >= 1
 c_1_97: y_1 + y_12 + y_63 + y_87 + y_92 + y_97 >= 1
 c_1_98: y_10 + y_13 + y_14 + y_83 + y_98 >= 1
 c_1_99: y_46 + y_66 + y_75 + y_79 + y_89 + y_90 + y_95 + y_99 >= 1
Bounds
 Constant = 1
Binaries
 y_0 y_1 y_2 y_3 y_4 y_5 y_6 y_7 y_8 y_9 y_10 y_11 y_12 y_13 y_14 y_15 y_16
 y_17 y_18 y_19 y_20 y_21 y_22 y_23 y_24 y_25 y_26 y_27 y_28 y_29 y_30 y_31
 y_32 y_33 y_34 y_35 y_36 y_37 y_38 y_39 y_40 y_41 y_42 y_43 y_44 y_45 y_46
 y_47 y_48 y_49 y_50 y_51 y_52 y_53 y_54 y_55 y_56 y_57 y_58 y_59 y_60 y_61
 y_62 y_63 y_64 y_65 y_66 y_67 y_68 y_69 y_70 y_71 y_72 y_73 y_74 y_75 y_76
 y_77 y_78 y_79 y_80 y_81 y_82 y_83 y_84 y_85 y_86 y_87 y_88 y_89 y_90 y_91
 y_92 y_93 y_94 y_95 y_96 y_97 y_98 y_99
End
